9
2147483647 100 90 93 39 78 61 69 47 
100 2147483647 33 35 20 6 47 8 88 
90 33 2147483647 36 75 48 39 81 48 
93 35 36 2147483647 37 42 22 15 66 
39 20 75 37 2147483647 24 58 54 36 
78 6 48 42 24 2147483647 27 15 30 
61 47 39 22 58 27 2147483647 30 72 
69 8 81 15 54 15 30 2147483647 2 
47 88 48 66 36 30 72 2 2147483647 
